(set-logic ALL)
(set-option :smt.string_solver z3str3)
(set-option :produce-models true)
(define-fun-rec str.toLower ((x String)) String
  (ite (= x "")
      ""
      (let ((Head (str.at x 0)))
        (str.++ 
          (ite (and (<= 65 (str.to_code Head)) 
                     (<= (str.to_code Head) 90))
               (str.from_code (+ (str.to_code Head) 32))
               Head)
          (str.toLower (str.substr x 1 (- (str.len x) 1)))))))
(declare-fun sym5074 () String)
(declare-fun sym5291 () String)
(declare-fun sym6985 () String)
(declare-fun sym6127 () String)
(declare-fun sym209 () String)
(declare-fun sym1900 () String)
(declare-fun sym5727 () String)
(declare-fun sym1248 () String)
(declare-fun sym3601 () String)
(declare-fun sym4656 () String)
(declare-fun sym2116 () String)
(declare-fun sym2751 () String)
(declare-fun sym4235 () String)
(declare-fun sym4872 () String)
(declare-fun sym2332 () String)
(declare-fun sym3385 () String)
(declare-fun sym161 () String)
(declare-fun sym3183 () String)
(declare-fun sym7188 () String)
(declare-fun sym6575 () String)
(declare-fun sym6334 () String)
(declare-fun sym7602 () String)
(declare-fun sym6778 () String)
(declare-fun sym7889 () String)
(declare-fun sym816 () String)
(declare-fun sym3813 () String)
(declare-fun sym7809 () String)
(declare-fun sym2549 () String)
(declare-fun sym2967 () String)
(declare-fun sym551 () String)
(declare-fun sym1457 () String)
(declare-fun sym5934 () String)
(declare-fun sym4029 () String)
(declare-fun sym1673 () String)
(declare-fun sym5513 () String)
(declare-fun sym4441 () String)
(declare-fun sym1032 () String)
(declare-fun sym7395 () String)
(define-fun Alphabet () RegLan 
	(re.* (re.union (str.to_re "A") (str.to_re "B") (str.to_re "C") (str.to_re "D") (str.to_re "E") (str.to_re "F") (str.to_re "G") (str.to_re "H") (str.to_re "I") (str.to_re "J") (str.to_re "K") (str.to_re "L") (str.to_re "M") (str.to_re "N") (str.to_re "O") (str.to_re "P") (str.to_re "Q") (str.to_re "R") (str.to_re "S") (str.to_re "T") (str.to_re "U") (str.to_re "V") (str.to_re "W") (str.to_re "X") (str.to_re "Y") (str.to_re "Z") (str.to_re "a") (str.to_re "b") (str.to_re "c") (str.to_re "d") (str.to_re "e") (str.to_re "f") (str.to_re "g") (str.to_re "h") (str.to_re "i") (str.to_re "j") (str.to_re "k") (str.to_re "l") (str.to_re "m") (str.to_re "n") (str.to_re "o") (str.to_re "p") (str.to_re "q") (str.to_re "r") (str.to_re "s") (str.to_re "t") (str.to_re "u") (str.to_re "v") (str.to_re "w") (str.to_re "x") (str.to_re "y") (str.to_re "z") ))
)

(assert (str.in_re sym7395 Alphabet))
(assert (str.in_re sym1032 Alphabet))
(assert (str.in_re sym4441 Alphabet))
(assert (str.in_re sym5513 Alphabet))
(assert (str.in_re sym1673 Alphabet))
(assert (str.in_re sym4029 Alphabet))
(assert (str.in_re sym5934 Alphabet))
(assert (str.in_re sym1457 Alphabet))
(assert (str.in_re sym551 Alphabet))
(assert (str.in_re sym2967 Alphabet))
(assert (str.in_re sym2549 Alphabet))
(assert (str.in_re sym7809 Alphabet))
(assert (str.in_re sym3813 Alphabet))
(assert (str.in_re sym816 Alphabet))
(assert (str.in_re sym7889 Alphabet))
(assert (str.in_re sym6778 Alphabet))
(assert (str.in_re sym7602 Alphabet))
(assert (str.in_re sym6334 Alphabet))
(assert (str.in_re sym6575 Alphabet))
(assert (str.in_re sym7188 Alphabet))
(assert (str.in_re sym3183 Alphabet))
(assert (str.in_re sym161 Alphabet))
(assert (str.in_re sym3385 Alphabet))
(assert (str.in_re sym2332 Alphabet))
(assert (str.in_re sym4872 Alphabet))
(assert (str.in_re sym4235 Alphabet))
(assert (str.in_re sym2751 Alphabet))
(assert (str.in_re sym2116 Alphabet))
(assert (str.in_re sym4656 Alphabet))
(assert (str.in_re sym3601 Alphabet))
(assert (str.in_re sym1248 Alphabet))
(assert (str.in_re sym5727 Alphabet))
(assert (str.in_re sym1900 Alphabet))
(assert (str.in_re sym209 Alphabet))
(assert (str.in_re sym6127 Alphabet))
(assert (str.in_re sym6985 Alphabet))
(assert (str.in_re sym5291 Alphabet))
(assert (str.in_re sym5074 Alphabet))(assert (<= 1 (str.len sym5074 )))
(assert (<= 1 (str.len sym4029 )))
(assert (<= 1 (str.len sym1032 )))
(assert (<= 1 (str.len sym1248 )))
(assert (<= 1 (str.len sym6575 )))
(assert (<= 1 (str.len sym4235 )))
(assert (<= 1 (str.len sym3601 )))
(assert (<= 1 (str.len sym6985 )))
(assert (<= 1 (str.len sym209 )))
(assert (<= 1 (str.len sym4441 )))
(assert (<= 1 (str.len sym6127 )))
(assert (<= 1 (str.len sym3813 )))
(assert (<= 1 (str.len sym2751 )))
(assert (<= 1 (str.len sym816 )))
(assert (<= 1 (str.len sym5934 )))
(assert (<= 1 (str.len sym2967 )))
(assert (<= 1 (str.len sym2549 )))
(assert (<= 1 (str.len sym7602 )))
(assert (<= 1 (str.len sym3183 )))
(assert (<= 1 (str.len sym5291 )))
(assert (<= 1 (str.len sym1673 )))
(assert (<= 1 (str.len sym3385 )))
(assert (<= 1 (str.len sym6778 )))
(assert (<= 1 (str.len sym7395 )))
(assert (<= 1 (str.len sym4656 )))
(assert (<= 1 (str.len sym1900 )))
(assert (<= 1 (str.len sym7809 )))
(assert (<= 1 (str.len sym6334 )))
(assert (<= 1 (str.len sym1457 )))
(assert (<= 1 (str.len sym7889 )))
(assert (<= 1 (str.len sym5727 )))
(assert (<= 1 (str.len sym5513 )))
(assert (<= 1 (str.len sym4872 )))
(assert (<= 1 (str.len sym551 )))
(assert (<= 1 (str.len sym2332 )))
(assert (<= 1 (str.len sym7188 )))
(assert (<= 1 (str.len sym2116 )))

(assert (not (= (str.toLower (str.substr sym4441  0 1))"l" )))
(assert (not (= (str.toLower (str.substr sym4441  0 1))"q" )))
(assert (not (= "" sym3813 )))
(assert (= (str.toLower (str.substr sym1900  0 1))"l" ))
(assert (not (= "" sym2751 )))
(assert (not (= (str.toLower (str.substr sym6778  0 1))"p" )))
(assert (not (= (str.toLower (str.substr sym4872  0 1))"p" )))
(assert (not (= (str.toLower (str.substr sym4656  0 1))"p" )))
(assert (not (= (str.toLower (str.substr sym551  0 1))"p" )))
(assert (not (= "" sym7809 )))
(assert (not (= (str.toLower (str.substr sym6985  0 1))"q" )))
(assert (not (= "" sym5074 )))
(assert (not (= (str.toLower (str.substr sym4029  0 1))"k" )))
(assert (not (= (str.toLower (str.substr sym4441  0 1))"r" )))
(assert (not (= (str.toLower (str.substr sym1673  0 1))"q" )))
(assert (not (= (str.toLower (str.substr sym3601  0 1))"r" )))
(assert (not (= (str.toLower (str.substr sym7188  0 1))"p" )))
(assert (not (= (str.toLower (str.substr sym816  0 1))"k" )))
(assert (not (= "" sym5727 )))
(assert (not (= (str.toLower (str.substr sym2751  0 1))"q" )))
(assert (not (= (str.toLower (str.substr sym4872  0 1))"k" )))
(assert (not (= (str.toLower (str.substr sym551  0 1))"q" )))
(assert (not (= (str.toLower (str.substr sym6575  0 1))"k" )))
(assert (not (= (str.toLower (str.substr sym1032  0 1))"q" )))
(assert (= (str.toLower (str.substr sym6778  0 1))"k" ))
(assert (not (= (str.toLower (str.substr sym3813  0 1))"q" )))
(assert (not (= (str.toLower (str.substr sym7602  0 1))"p" )))
(assert (not (= (str.toLower (str.substr sym5291  0 1))"q" )))
(assert (not (= (str.toLower (str.substr sym2751  0 1))"p" )))
(assert (= (str.toLower (str.substr sym2332  0 1))"h" ))
(assert (= (str.toLower (str.substr sym816  0 1))"g" ))
(assert (not (= (str.toLower (str.substr sym2332  0 1))"k" )))
(assert (= (str.toLower (str.substr sym4656  0 1))"g" ))
(assert (not (= "" sym7889 )))
(assert (not (= (str.toLower (str.substr sym7395  0 1))"q" )))
(assert (not (= "" sym1900 )))
(assert (not (= (str.toLower (str.substr sym3813  0 1))"k" )))
(assert (not (= "" "y" )))
(assert (not (= "" sym7602 )))
(assert (= (str.toLower (str.substr sym6334  0 1))"k" ))
(assert (not (= (str.toLower (str.substr sym3813  0 1))"p" )))
(assert (not (= (str.toLower (str.substr sym2751  0 1))"k" )))
(assert (not (= (str.toLower (str.substr sym6985  0 1))"k" )))
(assert (= "y" "y" ))
(assert (not (= (str.toLower (str.substr sym1673  0 1))"p" )))
(assert (not (= (str.toLower (str.substr sym3601  0 1))"k" )))
(assert (not (= "" sym2116 )))
(assert (not (= "" sym2549 )))
(assert (not (= (str.toLower (str.substr sym5074  0 1))"p" )))
(assert (not (= (str.toLower (str.substr sym6575  0 1))"p" )))
(assert (not (= (str.toLower (str.substr sym6778  0 1))"q" )))
(assert (= (str.toLower (str.substr sym2751  0 1))"g" ))
(assert (not (= (str.toLower (str.substr sym2967  0 1))"p" )))
(assert (not (= (str.toLower (str.substr sym1248  0 1))"q" )))
(assert (not (= (str.toLower (str.substr sym4441  0 1))"p" )))
(assert (not (= (str.toLower (str.substr sym4872  0 1))"q" )))
(assert (not (= (str.toLower (str.substr sym3385  0 1))"k" )))
(assert (not (= "" sym5934 )))
(assert (not (= "" sym4029 )))
(assert (= (str.toLower (str.substr sym4441  0 1))"h" ))
(assert (not (= (str.toLower (str.substr sym1673  0 1))"k" )))
(assert (not (= "" sym1032 )))
(assert (= (str.toLower (str.substr sym5934  0 1))"k" ))
(assert (not (= (str.toLower (str.substr sym4235  0 1))"p" )))
(assert (not (= "" "q" )))
(assert (= (str.toLower (str.substr sym7602  0 1))"k" ))
(assert (= (str.toLower (str.substr sym3813  0 1))"g" ))
(assert (not (= (str.toLower (str.substr sym1457  0 1))"k" )))
(assert (not (= (str.toLower (str.substr sym1900  0 1))"q" )))
(assert (not (= (str.toLower (str.substr sym1900  0 1))"p" )))
(assert (= (str.toLower (str.substr sym5074  0 1))"g" ))
(assert (= (str.toLower (str.substr sym4235  0 1))"g" ))
(assert (not (= (str.toLower (str.substr sym6985  0 1))"p" )))
(assert (not (= (str.toLower (str.substr sym4656  0 1))"q" )))
(assert (= (str.toLower (str.substr sym7809  0 1))"k" ))
(assert (not (= (str.toLower (str.substr sym6334  0 1))"p" )))
(assert (not (= (str.toLower (str.substr sym2332  0 1))"l" )))
(assert (not (= (str.toLower (str.substr sym1900  0 1))"g" )))
(assert (not (= "" sym6575 )))
(assert (not (= (str.toLower (str.substr sym2549  0 1))"p" )))
(assert (not (= (str.toLower (str.substr sym3183  0 1))"q" )))
(assert (not (= "" "n" )))
(assert (not (= (str.toLower (str.substr sym1032  0 1))"p" )))
(assert (not (= (str.toLower (str.substr sym6127  0 1))"p" )))
(assert (not (= "" sym6985 )))
(assert (not (= (str.toLower (str.substr sym2549  0 1))"q" )))
(assert (= (str.toLower (str.substr sym3385  0 1))"g" ))
(assert (not (= "" sym4235 )))
(assert (not (= "" sym1248 )))
(assert (not (= "y" "n" )))
(assert (not (= "" sym6127 )))
(assert (not (= (str.toLower (str.substr sym5513  0 1))"p" )))
(assert (not (= (str.toLower (str.substr sym4235  0 1))"k" )))
(assert (not (= "" sym3601 )))
(assert (not (= (str.toLower (str.substr sym3183  0 1))"k" )))
(assert (not (= (str.toLower (str.substr sym5727  0 1))"q" )))
(assert (= "" sym161 ))
(assert (not (= "" sym5291 )))
(assert (= (str.toLower (str.substr sym3601  0 1))"l" ))
(assert (not (= "" sym551 )))
(assert (not (= (str.toLower (str.substr sym4235  0 1))"q" )))
(assert (not (= "" sym2332 )))
(assert (= (str.toLower (str.substr sym6127  0 1))"k" ))
(assert (not (= "" sym6778 )))
(assert (= (str.toLower (str.substr sym2967  0 1))"g" ))
(assert (not (= (str.toLower (str.substr sym7889  0 1))"y" )))
(assert (not (= (str.toLower (str.substr sym5934  0 1))"q" )))
(assert (not (= (str.toLower (str.substr sym6334  0 1))"q" )))
(assert (not (= "" sym2967 )))
(assert (not (= "" sym3183 )))
(assert (not (= (str.toLower (str.substr sym2332  0 1))"g" )))
(assert (not (= "" sym7395 )))
(assert (not (= (str.toLower (str.substr sym6127  0 1))"q" )))
(assert (= (str.toLower (str.substr sym7395  0 1))"k" ))
(assert (not (= (str.toLower (str.substr sym2332  0 1))"q" )))
(assert (not (= "" sym4656 )))
(assert (not (= (str.toLower (str.substr sym3183  0 1))"p" )))
(assert (= (str.toLower (str.substr sym5513  0 1))"k" ))
(assert (not (= (str.toLower (str.substr sym3601  0 1))"p" )))
(assert (not (= "" sym1673 )))
(assert (= (str.toLower (str.substr sym551  0 1))"g" ))
(assert (not (= "" sym209 )))
(assert (not (= (str.toLower (str.substr sym5513  0 1))"q" )))
(assert (= (str.toLower (str.substr sym7188  0 1))"k" ))
(assert (not (= (str.toLower (str.substr sym3601  0 1))"q" )))
(assert (not (= (str.toLower (str.substr sym6575  0 1))"q" )))
(assert (not (= (str.toLower (str.substr sym816  0 1))"q" )))
(assert (not (= (str.toLower (str.substr sym7809  0 1))"q" )))
(assert (= (str.toLower (str.substr sym2549  0 1))"g" ))
(assert (not (= (str.toLower (str.substr sym2116  0 1))"k" )))
(assert (not (= (str.toLower (str.substr sym1457  0 1))"p" )))
(assert (not (= (str.toLower (str.substr sym1900  0 1))"k" )))
(assert (not (= (str.toLower (str.substr sym6985  0 1))"r" )))
(assert (= (str.toLower (str.substr sym2116  0 1))"g" ))
(assert (not (= (str.toLower (str.substr sym1032  0 1))"k" )))
(assert (not (= (str.toLower (str.substr sym5934  0 1))"p" )))
(assert (not (= (str.toLower (str.substr sym6985  0 1))"g" )))
(assert (not (= "" "y" )))
(assert (not (= (str.toLower (str.substr sym551  0 1))"k" )))
(assert (not (= "" sym7188 )))
(assert (not (= "" sym5513 )))
(assert (not (= (str.toLower (str.substr sym2332  0 1))"r" )))
(assert (not (= "n" "y" )))
(assert (= (str.toLower (str.substr sym5291  0 1))"p" ))
(assert (= (str.toLower (str.substr sym1457  0 1))"g" ))
(assert (not (= (str.toLower (str.substr sym2549  0 1))"k" )))
(assert (not (= "" sym4872 )))
(assert (= (str.toLower (str.substr sym1673  0 1))"g" ))
(assert (not (= (str.toLower (str.substr sym4656  0 1))"k" )))
(assert (not (= (str.toLower (str.substr sym4029  0 1))"q" )))
(assert (not (= "" sym816 )))
(assert (not (= (str.toLower (str.substr sym6575  0 1))"g" )))
(assert (not (= (str.toLower (str.substr sym5074  0 1))"q" )))
(assert (= (str.toLower (str.substr sym3183  0 1))"g" ))
(assert (not (= "" sym6334 )))
(assert (not (= (str.toLower (str.substr sym3385  0 1))"q" )))
(assert (= (str.toLower (str.substr sym1248  0 1))"g" ))
(assert (= (str.toLower (str.substr sym209  0 1))"y" ))
(assert (not (= (str.toLower (str.substr sym7395  0 1))"p" )))
(assert (not (= (str.toLower (str.substr sym1248  0 1))"p" )))
(assert (not (= (str.toLower (str.substr sym1457  0 1))"q" )))
(assert (not (= "" (str.toLower (str.substr sym209  0 1)))))
(assert (not (= (str.toLower (str.substr sym4441  0 1))"k" )))
(assert (not (= (str.toLower (str.substr sym3385  0 1))"p" )))
(assert (= (str.toLower (str.substr sym6985  0 1))"h" ))
(assert (not (= (str.toLower (str.substr sym6985  0 1))"l" )))
(assert (= (str.toLower (str.substr sym6575  0 1))"r" ))
(assert (not (= (str.toLower (str.substr sym4029  0 1))"p" )))
(assert (not (= "" sym3385 )))
(assert (not (= (str.toLower (str.substr sym7809  0 1))"p" )))
(assert (not (= "" (str.toLower (str.substr sym7889  0 1)))))
(assert (not (= (str.toLower (str.substr sym2116  0 1))"q" )))
(assert (not (= (str.toLower (str.substr sym5074  0 1))"k" )))
(assert (= "" "" ))
(assert (not (= (str.toLower (str.substr sym7602  0 1))"q" )))
(assert (not (= "" sym1457 )))
(assert (not (= "" sym4441 )))
(assert (= (str.toLower (str.substr sym4872  0 1))"g" ))
(assert (not (= (str.toLower (str.substr sym816  0 1))"p" )))
(assert (= (str.toLower (str.substr sym5727  0 1))"k" ))
(assert (not (= (str.toLower (str.substr sym3601  0 1))"g" )))
(assert (not (= (str.toLower (str.substr sym4441  0 1))"g" )))
(assert (not (= (str.toLower (str.substr sym1248  0 1))"k" )))
(assert (not (= (str.toLower (str.substr sym2967  0 1))"k" )))
(assert (not (= (str.toLower (str.substr sym1900  0 1))"r" )))
(assert (not (= (str.toLower (str.substr sym7188  0 1))"q" )))
(assert (not (= (str.toLower (str.substr sym2967  0 1))"q" )))
(assert (not (= (str.toLower (str.substr sym5727  0 1))"p" )))
(assert (= (str.toLower (str.substr sym1032  0 1))"g" ))
(assert (not (= (str.toLower (str.substr sym2332  0 1))"p" )))
(assert (= (str.toLower (str.substr sym4029  0 1))"g" ))
(assert (not (= (str.toLower (str.substr sym2116  0 1))"p" )))
(check-sat)
(get-model)
(exit)
